proyfinal/src/viki/013/andrea/andrea-localstore/experimentInOfficeAgust.take6/worker_9/b964af9a-8eed-4687-a5ea-8a097e11a918.als.cnf.out
Reading from standard input... Use '--help' for help.
============================[ Problem Statistics ]=============================
|                                                                             |
|  Number of variables:         87638                                         |
|  Number of clauses:          161767                                         |
|  Parse time:                   0.04 s                                       |
|                                                                             |
============================[ Search Statistics ]==============================
| Conflicts |          ORIGINAL         |          LEARNT          | Progress |
|           |    Vars  Clauses Literals |    Limit  Clauses Lit/Cl |          |
===============================================================================
|       100 |   63876   110545   276183 |    40533      100     15 | 27.114 % |
|       250 |   63876   110545   276183 |    44586      250     28 | 27.114 % |
|       475 |   55604    85793   215436 |    49045      473     35 | 36.553 % |
|       812 |   55577    85694   215176 |    53949      797     32 | 36.583 % |
|      1318 |   55561    85610   214982 |    59344     1301     35 | 36.602 % |
|      2077 |   55471    85369   214327 |    65279     2038     39 | 36.704 % |
|      3216 |   55362    84975   213392 |    71806     3174     52 | 36.829 % |
|      4924 |   55309    84685   212703 |    78987     4851     72 | 36.889 % |
|      7486 |   55174    84528   212341 |    86886     7409     73 | 37.043 % |
|     11330 |   55047    83716   210361 |    95575    11214     72 | 37.188 % |
|     17096 |   54882    83042   208801 |   105132    16911     76 | 37.376 % |
===============================================================================
restarts              : 72
conflicts             : 20603          (7474 /sec)
decisions             : 82165          (0.00 % random) (29807 /sec)
propagations          : 29844347       (10826730 /sec)
conflict literals     : 1525297        (44.60 % deleted)
Memory used           : 37.25 MB
CPU time              : 2.75654 s

INDETERMINATE
